Input: tic-12crafc.fixed040-Forb.dzn
============================================================
Total Runtime: 0.1445 seconds
Input parsing: 0.0039 seconds
Constraint building: 0.0665 seconds
MaxSAT solving: 0.0175 seconds
============================================================

Total variables: 23182
Total clauses: 51299
MaxSAT found with cost: N/A
NO SOLUTION FOUND
